NAME : grid_constant_constant_10_10_1.tsp
COMMENT : grid_constant_constant_10_10_1.tsp
TYPE : TSP
DIMENSION : 100
EDGE_WEIGHT_TYPE : EUC_2D
NODE_COORD_SECTION
1 10.000000 10.000000
2 11.000000 10.000000
3 12.000000 10.000000
4 13.000000 10.000000
5 14.000000 10.000000
6 15.000000 10.000000
7 16.000000 10.000000
8 17.000000 10.000000
9 18.000000 10.000000
10 19.000000 10.000000
11 10.000000 11.000000
12 11.000000 11.000000
13 12.000000 11.000000
14 13.000000 11.000000
15 14.000000 11.000000
16 15.000000 11.000000
17 16.000000 11.000000
18 17.000000 11.000000
19 18.000000 11.000000
20 19.000000 11.000000
21 10.000000 12.000000
22 11.000000 12.000000
23 12.000000 12.000000
24 13.000000 12.000000
25 14.000000 12.000000
26 15.000000 12.000000
27 16.000000 12.000000
28 17.000000 12.000000
29 18.000000 12.000000
30 19.000000 12.000000
31 10.000000 13.000000
32 11.000000 13.000000
33 12.000000 13.000000
34 13.000000 13.000000
35 14.000000 13.000000
36 15.000000 13.000000
37 16.000000 13.000000
38 17.000000 13.000000
39 18.000000 13.000000
40 19.000000 13.000000
41 10.000000 14.000000
42 11.000000 14.000000
43 12.000000 14.000000
44 13.000000 14.000000
45 14.000000 14.000000
46 15.000000 14.000000
47 16.000000 14.000000
48 17.000000 14.000000
49 18.000000 14.000000
50 19.000000 14.000000
51 10.000000 15.000000
52 11.000000 15.000000
53 12.000000 15.000000
54 13.000000 15.000000
55 14.000000 15.000000
56 15.000000 15.000000
57 16.000000 15.000000
58 17.000000 15.000000
59 18.000000 15.000000
60 19.000000 15.000000
61 10.000000 16.000000
62 11.000000 16.000000
63 12.000000 16.000000
64 13.000000 16.000000
65 14.000000 16.000000
66 15.000000 16.000000
67 16.000000 16.000000
68 17.000000 16.000000
69 18.000000 16.000000
70 19.000000 16.000000
71 10.000000 17.000000
72 11.000000 17.000000
73 12.000000 17.000000
74 13.000000 17.000000
75 14.000000 17.000000
76 15.000000 17.000000
77 16.000000 17.000000
78 17.000000 17.000000
79 18.000000 17.000000
80 19.000000 17.000000
81 10.000000 18.000000
82 11.000000 18.000000
83 12.000000 18.000000
84 13.000000 18.000000
85 14.000000 18.000000
86 15.000000 18.000000
87 16.000000 18.000000
88 17.000000 18.000000
89 18.000000 18.000000
90 19.000000 18.000000
91 10.000000 19.000000
92 11.000000 19.000000
93 12.000000 19.000000
94 13.000000 19.000000
95 14.000000 19.000000
96 15.000000 19.000000
97 16.000000 19.000000
98 17.000000 19.000000
99 18.000000 19.000000
100 19.000000 19.000000
EOF